c *********************************
c * Circuit generated by BenCGen
c *
c * Parity_445
c *
c * Ports with 1 gate(s): 1
c * Ports with 2 gate(s): 445
c * Total gates: 446
c *********************************
p cnf 891 1781
1 448 0
-1 -448 0
1 -447 0
448 -447 0
-1 -448 447 0
1 2 -449 0
-1 2 449 0
1 -2 449 0
-1 -2 -449 0
3 4 -450 0
-3 4 450 0
3 -4 450 0
-3 -4 -450 0
5 6 -451 0
-5 6 451 0
5 -6 451 0
-5 -6 -451 0
7 8 -452 0
-7 8 452 0
7 -8 452 0
-7 -8 -452 0
9 10 -453 0
-9 10 453 0
9 -10 453 0
-9 -10 -453 0
11 12 -454 0
-11 12 454 0
11 -12 454 0
-11 -12 -454 0
13 14 -455 0
-13 14 455 0
13 -14 455 0
-13 -14 -455 0
15 16 -456 0
-15 16 456 0
15 -16 456 0
-15 -16 -456 0
17 18 -457 0
-17 18 457 0
17 -18 457 0
-17 -18 -457 0
19 20 -458 0
-19 20 458 0
19 -20 458 0
-19 -20 -458 0
21 22 -459 0
-21 22 459 0
21 -22 459 0
-21 -22 -459 0
23 24 -460 0
-23 24 460 0
23 -24 460 0
-23 -24 -460 0
25 26 -461 0
-25 26 461 0
25 -26 461 0
-25 -26 -461 0
27 28 -462 0
-27 28 462 0
27 -28 462 0
-27 -28 -462 0
29 30 -463 0
-29 30 463 0
29 -30 463 0
-29 -30 -463 0
31 32 -464 0
-31 32 464 0
31 -32 464 0
-31 -32 -464 0
33 34 -465 0
-33 34 465 0
33 -34 465 0
-33 -34 -465 0
35 36 -466 0
-35 36 466 0
35 -36 466 0
-35 -36 -466 0
37 38 -467 0
-37 38 467 0
37 -38 467 0
-37 -38 -467 0
39 40 -468 0
-39 40 468 0
39 -40 468 0
-39 -40 -468 0
41 42 -469 0
-41 42 469 0
41 -42 469 0
-41 -42 -469 0
43 44 -470 0
-43 44 470 0
43 -44 470 0
-43 -44 -470 0
45 46 -471 0
-45 46 471 0
45 -46 471 0
-45 -46 -471 0
47 48 -472 0
-47 48 472 0
47 -48 472 0
-47 -48 -472 0
49 50 -473 0
-49 50 473 0
49 -50 473 0
-49 -50 -473 0
51 52 -474 0
-51 52 474 0
51 -52 474 0
-51 -52 -474 0
53 54 -475 0
-53 54 475 0
53 -54 475 0
-53 -54 -475 0
55 56 -476 0
-55 56 476 0
55 -56 476 0
-55 -56 -476 0
57 58 -477 0
-57 58 477 0
57 -58 477 0
-57 -58 -477 0
59 60 -478 0
-59 60 478 0
59 -60 478 0
-59 -60 -478 0
61 62 -479 0
-61 62 479 0
61 -62 479 0
-61 -62 -479 0
63 64 -480 0
-63 64 480 0
63 -64 480 0
-63 -64 -480 0
65 66 -481 0
-65 66 481 0
65 -66 481 0
-65 -66 -481 0
67 68 -482 0
-67 68 482 0
67 -68 482 0
-67 -68 -482 0
69 70 -483 0
-69 70 483 0
69 -70 483 0
-69 -70 -483 0
71 72 -484 0
-71 72 484 0
71 -72 484 0
-71 -72 -484 0
73 74 -485 0
-73 74 485 0
73 -74 485 0
-73 -74 -485 0
75 76 -486 0
-75 76 486 0
75 -76 486 0
-75 -76 -486 0
77 78 -487 0
-77 78 487 0
77 -78 487 0
-77 -78 -487 0
79 80 -488 0
-79 80 488 0
79 -80 488 0
-79 -80 -488 0
81 82 -489 0
-81 82 489 0
81 -82 489 0
-81 -82 -489 0
83 84 -490 0
-83 84 490 0
83 -84 490 0
-83 -84 -490 0
85 86 -491 0
-85 86 491 0
85 -86 491 0
-85 -86 -491 0
87 88 -492 0
-87 88 492 0
87 -88 492 0
-87 -88 -492 0
89 90 -493 0
-89 90 493 0
89 -90 493 0
-89 -90 -493 0
91 92 -494 0
-91 92 494 0
91 -92 494 0
-91 -92 -494 0
93 94 -495 0
-93 94 495 0
93 -94 495 0
-93 -94 -495 0
95 96 -496 0
-95 96 496 0
95 -96 496 0
-95 -96 -496 0
97 98 -497 0
-97 98 497 0
97 -98 497 0
-97 -98 -497 0
99 100 -498 0
-99 100 498 0
99 -100 498 0
-99 -100 -498 0
101 102 -499 0
-101 102 499 0
101 -102 499 0
-101 -102 -499 0
103 104 -500 0
-103 104 500 0
103 -104 500 0
-103 -104 -500 0
105 106 -501 0
-105 106 501 0
105 -106 501 0
-105 -106 -501 0
107 108 -502 0
-107 108 502 0
107 -108 502 0
-107 -108 -502 0
109 110 -503 0
-109 110 503 0
109 -110 503 0
-109 -110 -503 0
111 112 -504 0
-111 112 504 0
111 -112 504 0
-111 -112 -504 0
113 114 -505 0
-113 114 505 0
113 -114 505 0
-113 -114 -505 0
115 116 -506 0
-115 116 506 0
115 -116 506 0
-115 -116 -506 0
117 118 -507 0
-117 118 507 0
117 -118 507 0
-117 -118 -507 0
119 120 -508 0
-119 120 508 0
119 -120 508 0
-119 -120 -508 0
121 122 -509 0
-121 122 509 0
121 -122 509 0
-121 -122 -509 0
123 124 -510 0
-123 124 510 0
123 -124 510 0
-123 -124 -510 0
125 126 -511 0
-125 126 511 0
125 -126 511 0
-125 -126 -511 0
127 128 -512 0
-127 128 512 0
127 -128 512 0
-127 -128 -512 0
129 130 -513 0
-129 130 513 0
129 -130 513 0
-129 -130 -513 0
131 132 -514 0
-131 132 514 0
131 -132 514 0
-131 -132 -514 0
133 134 -515 0
-133 134 515 0
133 -134 515 0
-133 -134 -515 0
135 136 -516 0
-135 136 516 0
135 -136 516 0
-135 -136 -516 0
137 138 -517 0
-137 138 517 0
137 -138 517 0
-137 -138 -517 0
139 140 -518 0
-139 140 518 0
139 -140 518 0
-139 -140 -518 0
141 142 -519 0
-141 142 519 0
141 -142 519 0
-141 -142 -519 0
143 144 -520 0
-143 144 520 0
143 -144 520 0
-143 -144 -520 0
145 146 -521 0
-145 146 521 0
145 -146 521 0
-145 -146 -521 0
147 148 -522 0
-147 148 522 0
147 -148 522 0
-147 -148 -522 0
149 150 -523 0
-149 150 523 0
149 -150 523 0
-149 -150 -523 0
151 152 -524 0
-151 152 524 0
151 -152 524 0
-151 -152 -524 0
153 154 -525 0
-153 154 525 0
153 -154 525 0
-153 -154 -525 0
155 156 -526 0
-155 156 526 0
155 -156 526 0
-155 -156 -526 0
157 158 -527 0
-157 158 527 0
157 -158 527 0
-157 -158 -527 0
159 160 -528 0
-159 160 528 0
159 -160 528 0
-159 -160 -528 0
161 162 -529 0
-161 162 529 0
161 -162 529 0
-161 -162 -529 0
163 164 -530 0
-163 164 530 0
163 -164 530 0
-163 -164 -530 0
165 166 -531 0
-165 166 531 0
165 -166 531 0
-165 -166 -531 0
167 168 -532 0
-167 168 532 0
167 -168 532 0
-167 -168 -532 0
169 170 -533 0
-169 170 533 0
169 -170 533 0
-169 -170 -533 0
171 172 -534 0
-171 172 534 0
171 -172 534 0
-171 -172 -534 0
173 174 -535 0
-173 174 535 0
173 -174 535 0
-173 -174 -535 0
175 176 -536 0
-175 176 536 0
175 -176 536 0
-175 -176 -536 0
177 178 -537 0
-177 178 537 0
177 -178 537 0
-177 -178 -537 0
179 180 -538 0
-179 180 538 0
179 -180 538 0
-179 -180 -538 0
181 182 -539 0
-181 182 539 0
181 -182 539 0
-181 -182 -539 0
183 184 -540 0
-183 184 540 0
183 -184 540 0
-183 -184 -540 0
185 186 -541 0
-185 186 541 0
185 -186 541 0
-185 -186 -541 0
187 188 -542 0
-187 188 542 0
187 -188 542 0
-187 -188 -542 0
189 190 -543 0
-189 190 543 0
189 -190 543 0
-189 -190 -543 0
191 192 -544 0
-191 192 544 0
191 -192 544 0
-191 -192 -544 0
193 194 -545 0
-193 194 545 0
193 -194 545 0
-193 -194 -545 0
195 196 -546 0
-195 196 546 0
195 -196 546 0
-195 -196 -546 0
197 198 -547 0
-197 198 547 0
197 -198 547 0
-197 -198 -547 0
199 200 -548 0
-199 200 548 0
199 -200 548 0
-199 -200 -548 0
201 202 -549 0
-201 202 549 0
201 -202 549 0
-201 -202 -549 0
203 204 -550 0
-203 204 550 0
203 -204 550 0
-203 -204 -550 0
205 206 -551 0
-205 206 551 0
205 -206 551 0
-205 -206 -551 0
207 208 -552 0
-207 208 552 0
207 -208 552 0
-207 -208 -552 0
209 210 -553 0
-209 210 553 0
209 -210 553 0
-209 -210 -553 0
211 212 -554 0
-211 212 554 0
211 -212 554 0
-211 -212 -554 0
213 214 -555 0
-213 214 555 0
213 -214 555 0
-213 -214 -555 0
215 216 -556 0
-215 216 556 0
215 -216 556 0
-215 -216 -556 0
217 218 -557 0
-217 218 557 0
217 -218 557 0
-217 -218 -557 0
219 220 -558 0
-219 220 558 0
219 -220 558 0
-219 -220 -558 0
221 222 -559 0
-221 222 559 0
221 -222 559 0
-221 -222 -559 0
223 224 -560 0
-223 224 560 0
223 -224 560 0
-223 -224 -560 0
225 226 -561 0
-225 226 561 0
225 -226 561 0
-225 -226 -561 0
227 228 -562 0
-227 228 562 0
227 -228 562 0
-227 -228 -562 0
229 230 -563 0
-229 230 563 0
229 -230 563 0
-229 -230 -563 0
231 232 -564 0
-231 232 564 0
231 -232 564 0
-231 -232 -564 0
233 234 -565 0
-233 234 565 0
233 -234 565 0
-233 -234 -565 0
235 236 -566 0
-235 236 566 0
235 -236 566 0
-235 -236 -566 0
237 238 -567 0
-237 238 567 0
237 -238 567 0
-237 -238 -567 0
239 240 -568 0
-239 240 568 0
239 -240 568 0
-239 -240 -568 0
241 242 -569 0
-241 242 569 0
241 -242 569 0
-241 -242 -569 0
243 244 -570 0
-243 244 570 0
243 -244 570 0
-243 -244 -570 0
245 246 -571 0
-245 246 571 0
245 -246 571 0
-245 -246 -571 0
247 248 -572 0
-247 248 572 0
247 -248 572 0
-247 -248 -572 0
249 250 -573 0
-249 250 573 0
249 -250 573 0
-249 -250 -573 0
251 252 -574 0
-251 252 574 0
251 -252 574 0
-251 -252 -574 0
253 254 -575 0
-253 254 575 0
253 -254 575 0
-253 -254 -575 0
255 256 -576 0
-255 256 576 0
255 -256 576 0
-255 -256 -576 0
257 258 -577 0
-257 258 577 0
257 -258 577 0
-257 -258 -577 0
259 260 -578 0
-259 260 578 0
259 -260 578 0
-259 -260 -578 0
261 262 -579 0
-261 262 579 0
261 -262 579 0
-261 -262 -579 0
263 264 -580 0
-263 264 580 0
263 -264 580 0
-263 -264 -580 0
265 266 -581 0
-265 266 581 0
265 -266 581 0
-265 -266 -581 0
267 268 -582 0
-267 268 582 0
267 -268 582 0
-267 -268 -582 0
269 270 -583 0
-269 270 583 0
269 -270 583 0
-269 -270 -583 0
271 272 -584 0
-271 272 584 0
271 -272 584 0
-271 -272 -584 0
273 274 -585 0
-273 274 585 0
273 -274 585 0
-273 -274 -585 0
275 276 -586 0
-275 276 586 0
275 -276 586 0
-275 -276 -586 0
277 278 -587 0
-277 278 587 0
277 -278 587 0
-277 -278 -587 0
279 280 -588 0
-279 280 588 0
279 -280 588 0
-279 -280 -588 0
281 282 -589 0
-281 282 589 0
281 -282 589 0
-281 -282 -589 0
283 284 -590 0
-283 284 590 0
283 -284 590 0
-283 -284 -590 0
285 286 -591 0
-285 286 591 0
285 -286 591 0
-285 -286 -591 0
287 288 -592 0
-287 288 592 0
287 -288 592 0
-287 -288 -592 0
289 290 -593 0
-289 290 593 0
289 -290 593 0
-289 -290 -593 0
291 292 -594 0
-291 292 594 0
291 -292 594 0
-291 -292 -594 0
293 294 -595 0
-293 294 595 0
293 -294 595 0
-293 -294 -595 0
295 296 -596 0
-295 296 596 0
295 -296 596 0
-295 -296 -596 0
297 298 -597 0
-297 298 597 0
297 -298 597 0
-297 -298 -597 0
299 300 -598 0
-299 300 598 0
299 -300 598 0
-299 -300 -598 0
301 302 -599 0
-301 302 599 0
301 -302 599 0
-301 -302 -599 0
303 304 -600 0
-303 304 600 0
303 -304 600 0
-303 -304 -600 0
305 306 -601 0
-305 306 601 0
305 -306 601 0
-305 -306 -601 0
307 308 -602 0
-307 308 602 0
307 -308 602 0
-307 -308 -602 0
309 310 -603 0
-309 310 603 0
309 -310 603 0
-309 -310 -603 0
311 312 -604 0
-311 312 604 0
311 -312 604 0
-311 -312 -604 0
313 314 -605 0
-313 314 605 0
313 -314 605 0
-313 -314 -605 0
315 316 -606 0
-315 316 606 0
315 -316 606 0
-315 -316 -606 0
317 318 -607 0
-317 318 607 0
317 -318 607 0
-317 -318 -607 0
319 320 -608 0
-319 320 608 0
319 -320 608 0
-319 -320 -608 0
321 322 -609 0
-321 322 609 0
321 -322 609 0
-321 -322 -609 0
323 324 -610 0
-323 324 610 0
323 -324 610 0
-323 -324 -610 0
325 326 -611 0
-325 326 611 0
325 -326 611 0
-325 -326 -611 0
327 328 -612 0
-327 328 612 0
327 -328 612 0
-327 -328 -612 0
329 330 -613 0
-329 330 613 0
329 -330 613 0
-329 -330 -613 0
331 332 -614 0
-331 332 614 0
331 -332 614 0
-331 -332 -614 0
333 334 -615 0
-333 334 615 0
333 -334 615 0
-333 -334 -615 0
335 336 -616 0
-335 336 616 0
335 -336 616 0
-335 -336 -616 0
337 338 -617 0
-337 338 617 0
337 -338 617 0
-337 -338 -617 0
339 340 -618 0
-339 340 618 0
339 -340 618 0
-339 -340 -618 0
341 342 -619 0
-341 342 619 0
341 -342 619 0
-341 -342 -619 0
343 344 -620 0
-343 344 620 0
343 -344 620 0
-343 -344 -620 0
345 346 -621 0
-345 346 621 0
345 -346 621 0
-345 -346 -621 0
347 348 -622 0
-347 348 622 0
347 -348 622 0
-347 -348 -622 0
349 350 -623 0
-349 350 623 0
349 -350 623 0
-349 -350 -623 0
351 352 -624 0
-351 352 624 0
351 -352 624 0
-351 -352 -624 0
353 354 -625 0
-353 354 625 0
353 -354 625 0
-353 -354 -625 0
355 356 -626 0
-355 356 626 0
355 -356 626 0
-355 -356 -626 0
357 358 -627 0
-357 358 627 0
357 -358 627 0
-357 -358 -627 0
359 360 -628 0
-359 360 628 0
359 -360 628 0
-359 -360 -628 0
361 362 -629 0
-361 362 629 0
361 -362 629 0
-361 -362 -629 0
363 364 -630 0
-363 364 630 0
363 -364 630 0
-363 -364 -630 0
365 366 -631 0
-365 366 631 0
365 -366 631 0
-365 -366 -631 0
367 368 -632 0
-367 368 632 0
367 -368 632 0
-367 -368 -632 0
369 370 -633 0
-369 370 633 0
369 -370 633 0
-369 -370 -633 0
371 372 -634 0
-371 372 634 0
371 -372 634 0
-371 -372 -634 0
373 374 -635 0
-373 374 635 0
373 -374 635 0
-373 -374 -635 0
375 376 -636 0
-375 376 636 0
375 -376 636 0
-375 -376 -636 0
377 378 -637 0
-377 378 637 0
377 -378 637 0
-377 -378 -637 0
379 380 -638 0
-379 380 638 0
379 -380 638 0
-379 -380 -638 0
381 382 -639 0
-381 382 639 0
381 -382 639 0
-381 -382 -639 0
383 384 -640 0
-383 384 640 0
383 -384 640 0
-383 -384 -640 0
385 386 -641 0
-385 386 641 0
385 -386 641 0
-385 -386 -641 0
387 388 -642 0
-387 388 642 0
387 -388 642 0
-387 -388 -642 0
389 390 -643 0
-389 390 643 0
389 -390 643 0
-389 -390 -643 0
391 392 -644 0
-391 392 644 0
391 -392 644 0
-391 -392 -644 0
393 394 -645 0
-393 394 645 0
393 -394 645 0
-393 -394 -645 0
395 396 -646 0
-395 396 646 0
395 -396 646 0
-395 -396 -646 0
397 398 -647 0
-397 398 647 0
397 -398 647 0
-397 -398 -647 0
399 400 -648 0
-399 400 648 0
399 -400 648 0
-399 -400 -648 0
401 402 -649 0
-401 402 649 0
401 -402 649 0
-401 -402 -649 0
403 404 -650 0
-403 404 650 0
403 -404 650 0
-403 -404 -650 0
405 406 -651 0
-405 406 651 0
405 -406 651 0
-405 -406 -651 0
407 408 -652 0
-407 408 652 0
407 -408 652 0
-407 -408 -652 0
409 410 -653 0
-409 410 653 0
409 -410 653 0
-409 -410 -653 0
411 412 -654 0
-411 412 654 0
411 -412 654 0
-411 -412 -654 0
413 414 -655 0
-413 414 655 0
413 -414 655 0
-413 -414 -655 0
415 416 -656 0
-415 416 656 0
415 -416 656 0
-415 -416 -656 0
417 418 -657 0
-417 418 657 0
417 -418 657 0
-417 -418 -657 0
419 420 -658 0
-419 420 658 0
419 -420 658 0
-419 -420 -658 0
421 422 -659 0
-421 422 659 0
421 -422 659 0
-421 -422 -659 0
423 424 -660 0
-423 424 660 0
423 -424 660 0
-423 -424 -660 0
425 426 -661 0
-425 426 661 0
425 -426 661 0
-425 -426 -661 0
427 428 -662 0
-427 428 662 0
427 -428 662 0
-427 -428 -662 0
429 430 -663 0
-429 430 663 0
429 -430 663 0
-429 -430 -663 0
431 432 -664 0
-431 432 664 0
431 -432 664 0
-431 -432 -664 0
433 434 -665 0
-433 434 665 0
433 -434 665 0
-433 -434 -665 0
435 436 -666 0
-435 436 666 0
435 -436 666 0
-435 -436 -666 0
437 438 -667 0
-437 438 667 0
437 -438 667 0
-437 -438 -667 0
439 440 -668 0
-439 440 668 0
439 -440 668 0
-439 -440 -668 0
441 442 -669 0
-441 442 669 0
441 -442 669 0
-441 -442 -669 0
443 444 -670 0
-443 444 670 0
443 -444 670 0
-443 -444 -670 0
449 450 -671 0
-449 450 671 0
449 -450 671 0
-449 -450 -671 0
451 452 -672 0
-451 452 672 0
451 -452 672 0
-451 -452 -672 0
453 454 -673 0
-453 454 673 0
453 -454 673 0
-453 -454 -673 0
455 456 -674 0
-455 456 674 0
455 -456 674 0
-455 -456 -674 0
457 458 -675 0
-457 458 675 0
457 -458 675 0
-457 -458 -675 0
459 460 -676 0
-459 460 676 0
459 -460 676 0
-459 -460 -676 0
461 462 -677 0
-461 462 677 0
461 -462 677 0
-461 -462 -677 0
463 464 -678 0
-463 464 678 0
463 -464 678 0
-463 -464 -678 0
465 466 -679 0
-465 466 679 0
465 -466 679 0
-465 -466 -679 0
467 468 -680 0
-467 468 680 0
467 -468 680 0
-467 -468 -680 0
469 470 -681 0
-469 470 681 0
469 -470 681 0
-469 -470 -681 0
471 472 -682 0
-471 472 682 0
471 -472 682 0
-471 -472 -682 0
473 474 -683 0
-473 474 683 0
473 -474 683 0
-473 -474 -683 0
475 476 -684 0
-475 476 684 0
475 -476 684 0
-475 -476 -684 0
477 478 -685 0
-477 478 685 0
477 -478 685 0
-477 -478 -685 0
479 480 -686 0
-479 480 686 0
479 -480 686 0
-479 -480 -686 0
481 482 -687 0
-481 482 687 0
481 -482 687 0
-481 -482 -687 0
483 484 -688 0
-483 484 688 0
483 -484 688 0
-483 -484 -688 0
485 486 -689 0
-485 486 689 0
485 -486 689 0
-485 -486 -689 0
487 488 -690 0
-487 488 690 0
487 -488 690 0
-487 -488 -690 0
489 490 -691 0
-489 490 691 0
489 -490 691 0
-489 -490 -691 0
491 492 -692 0
-491 492 692 0
491 -492 692 0
-491 -492 -692 0
493 494 -693 0
-493 494 693 0
493 -494 693 0
-493 -494 -693 0
495 496 -694 0
-495 496 694 0
495 -496 694 0
-495 -496 -694 0
497 498 -695 0
-497 498 695 0
497 -498 695 0
-497 -498 -695 0
499 500 -696 0
-499 500 696 0
499 -500 696 0
-499 -500 -696 0
501 502 -697 0
-501 502 697 0
501 -502 697 0
-501 -502 -697 0
503 504 -698 0
-503 504 698 0
503 -504 698 0
-503 -504 -698 0
505 506 -699 0
-505 506 699 0
505 -506 699 0
-505 -506 -699 0
507 508 -700 0
-507 508 700 0
507 -508 700 0
-507 -508 -700 0
509 510 -701 0
-509 510 701 0
509 -510 701 0
-509 -510 -701 0
511 512 -702 0
-511 512 702 0
511 -512 702 0
-511 -512 -702 0
513 514 -703 0
-513 514 703 0
513 -514 703 0
-513 -514 -703 0
515 516 -704 0
-515 516 704 0
515 -516 704 0
-515 -516 -704 0
517 518 -705 0
-517 518 705 0
517 -518 705 0
-517 -518 -705 0
519 520 -706 0
-519 520 706 0
519 -520 706 0
-519 -520 -706 0
521 522 -707 0
-521 522 707 0
521 -522 707 0
-521 -522 -707 0
523 524 -708 0
-523 524 708 0
523 -524 708 0
-523 -524 -708 0
525 526 -709 0
-525 526 709 0
525 -526 709 0
-525 -526 -709 0
527 528 -710 0
-527 528 710 0
527 -528 710 0
-527 -528 -710 0
529 530 -711 0
-529 530 711 0
529 -530 711 0
-529 -530 -711 0
531 532 -712 0
-531 532 712 0
531 -532 712 0
-531 -532 -712 0
533 534 -713 0
-533 534 713 0
533 -534 713 0
-533 -534 -713 0
535 536 -714 0
-535 536 714 0
535 -536 714 0
-535 -536 -714 0
537 538 -715 0
-537 538 715 0
537 -538 715 0
-537 -538 -715 0
539 540 -716 0
-539 540 716 0
539 -540 716 0
-539 -540 -716 0
541 542 -717 0
-541 542 717 0
541 -542 717 0
-541 -542 -717 0
543 544 -718 0
-543 544 718 0
543 -544 718 0
-543 -544 -718 0
545 546 -719 0
-545 546 719 0
545 -546 719 0
-545 -546 -719 0
547 548 -720 0
-547 548 720 0
547 -548 720 0
-547 -548 -720 0
549 550 -721 0
-549 550 721 0
549 -550 721 0
-549 -550 -721 0
551 552 -722 0
-551 552 722 0
551 -552 722 0
-551 -552 -722 0
553 554 -723 0
-553 554 723 0
553 -554 723 0
-553 -554 -723 0
555 556 -724 0
-555 556 724 0
555 -556 724 0
-555 -556 -724 0
557 558 -725 0
-557 558 725 0
557 -558 725 0
-557 -558 -725 0
559 560 -726 0
-559 560 726 0
559 -560 726 0
-559 -560 -726 0
561 562 -727 0
-561 562 727 0
561 -562 727 0
-561 -562 -727 0
563 564 -728 0
-563 564 728 0
563 -564 728 0
-563 -564 -728 0
565 566 -729 0
-565 566 729 0
565 -566 729 0
-565 -566 -729 0
567 568 -730 0
-567 568 730 0
567 -568 730 0
-567 -568 -730 0
569 570 -731 0
-569 570 731 0
569 -570 731 0
-569 -570 -731 0
571 572 -732 0
-571 572 732 0
571 -572 732 0
-571 -572 -732 0
573 574 -733 0
-573 574 733 0
573 -574 733 0
-573 -574 -733 0
575 576 -734 0
-575 576 734 0
575 -576 734 0
-575 -576 -734 0
577 578 -735 0
-577 578 735 0
577 -578 735 0
-577 -578 -735 0
579 580 -736 0
-579 580 736 0
579 -580 736 0
-579 -580 -736 0
581 582 -737 0
-581 582 737 0
581 -582 737 0
-581 -582 -737 0
583 584 -738 0
-583 584 738 0
583 -584 738 0
-583 -584 -738 0
585 586 -739 0
-585 586 739 0
585 -586 739 0
-585 -586 -739 0
587 588 -740 0
-587 588 740 0
587 -588 740 0
-587 -588 -740 0
589 590 -741 0
-589 590 741 0
589 -590 741 0
-589 -590 -741 0
591 592 -742 0
-591 592 742 0
591 -592 742 0
-591 -592 -742 0
593 594 -743 0
-593 594 743 0
593 -594 743 0
-593 -594 -743 0
595 596 -744 0
-595 596 744 0
595 -596 744 0
-595 -596 -744 0
597 598 -745 0
-597 598 745 0
597 -598 745 0
-597 -598 -745 0
599 600 -746 0
-599 600 746 0
599 -600 746 0
-599 -600 -746 0
601 602 -747 0
-601 602 747 0
601 -602 747 0
-601 -602 -747 0
603 604 -748 0
-603 604 748 0
603 -604 748 0
-603 -604 -748 0
605 606 -749 0
-605 606 749 0
605 -606 749 0
-605 -606 -749 0
607 608 -750 0
-607 608 750 0
607 -608 750 0
-607 -608 -750 0
609 610 -751 0
-609 610 751 0
609 -610 751 0
-609 -610 -751 0
611 612 -752 0
-611 612 752 0
611 -612 752 0
-611 -612 -752 0
613 614 -753 0
-613 614 753 0
613 -614 753 0
-613 -614 -753 0
615 616 -754 0
-615 616 754 0
615 -616 754 0
-615 -616 -754 0
617 618 -755 0
-617 618 755 0
617 -618 755 0
-617 -618 -755 0
619 620 -756 0
-619 620 756 0
619 -620 756 0
-619 -620 -756 0
621 622 -757 0
-621 622 757 0
621 -622 757 0
-621 -622 -757 0
623 624 -758 0
-623 624 758 0
623 -624 758 0
-623 -624 -758 0
625 626 -759 0
-625 626 759 0
625 -626 759 0
-625 -626 -759 0
627 628 -760 0
-627 628 760 0
627 -628 760 0
-627 -628 -760 0
629 630 -761 0
-629 630 761 0
629 -630 761 0
-629 -630 -761 0
631 632 -762 0
-631 632 762 0
631 -632 762 0
-631 -632 -762 0
633 634 -763 0
-633 634 763 0
633 -634 763 0
-633 -634 -763 0
635 636 -764 0
-635 636 764 0
635 -636 764 0
-635 -636 -764 0
637 638 -765 0
-637 638 765 0
637 -638 765 0
-637 -638 -765 0
639 640 -766 0
-639 640 766 0
639 -640 766 0
-639 -640 -766 0
641 642 -767 0
-641 642 767 0
641 -642 767 0
-641 -642 -767 0
643 644 -768 0
-643 644 768 0
643 -644 768 0
-643 -644 -768 0
645 646 -769 0
-645 646 769 0
645 -646 769 0
-645 -646 -769 0
647 648 -770 0
-647 648 770 0
647 -648 770 0
-647 -648 -770 0
649 650 -771 0
-649 650 771 0
649 -650 771 0
-649 -650 -771 0
651 652 -772 0
-651 652 772 0
651 -652 772 0
-651 -652 -772 0
653 654 -773 0
-653 654 773 0
653 -654 773 0
-653 -654 -773 0
655 656 -774 0
-655 656 774 0
655 -656 774 0
-655 -656 -774 0
657 658 -775 0
-657 658 775 0
657 -658 775 0
-657 -658 -775 0
659 660 -776 0
-659 660 776 0
659 -660 776 0
-659 -660 -776 0
661 662 -777 0
-661 662 777 0
661 -662 777 0
-661 -662 -777 0
663 664 -778 0
-663 664 778 0
663 -664 778 0
-663 -664 -778 0
665 666 -779 0
-665 666 779 0
665 -666 779 0
-665 -666 -779 0
667 668 -780 0
-667 668 780 0
667 -668 780 0
-667 -668 -780 0
669 670 -781 0
-669 670 781 0
669 -670 781 0
-669 -670 -781 0
671 672 -782 0
-671 672 782 0
671 -672 782 0
-671 -672 -782 0
673 674 -783 0
-673 674 783 0
673 -674 783 0
-673 -674 -783 0
675 676 -784 0
-675 676 784 0
675 -676 784 0
-675 -676 -784 0
677 678 -785 0
-677 678 785 0
677 -678 785 0
-677 -678 -785 0
679 680 -786 0
-679 680 786 0
679 -680 786 0
-679 -680 -786 0
681 682 -787 0
-681 682 787 0
681 -682 787 0
-681 -682 -787 0
683 684 -788 0
-683 684 788 0
683 -684 788 0
-683 -684 -788 0
685 686 -789 0
-685 686 789 0
685 -686 789 0
-685 -686 -789 0
687 688 -790 0
-687 688 790 0
687 -688 790 0
-687 -688 -790 0
689 690 -791 0
-689 690 791 0
689 -690 791 0
-689 -690 -791 0
691 692 -792 0
-691 692 792 0
691 -692 792 0
-691 -692 -792 0
693 694 -793 0
-693 694 793 0
693 -694 793 0
-693 -694 -793 0
695 696 -794 0
-695 696 794 0
695 -696 794 0
-695 -696 -794 0
697 698 -795 0
-697 698 795 0
697 -698 795 0
-697 -698 -795 0
699 700 -796 0
-699 700 796 0
699 -700 796 0
-699 -700 -796 0
701 702 -797 0
-701 702 797 0
701 -702 797 0
-701 -702 -797 0
703 704 -798 0
-703 704 798 0
703 -704 798 0
-703 -704 -798 0
705 706 -799 0
-705 706 799 0
705 -706 799 0
-705 -706 -799 0
707 708 -800 0
-707 708 800 0
707 -708 800 0
-707 -708 -800 0
709 710 -801 0
-709 710 801 0
709 -710 801 0
-709 -710 -801 0
711 712 -802 0
-711 712 802 0
711 -712 802 0
-711 -712 -802 0
713 714 -803 0
-713 714 803 0
713 -714 803 0
-713 -714 -803 0
715 716 -804 0
-715 716 804 0
715 -716 804 0
-715 -716 -804 0
717 718 -805 0
-717 718 805 0
717 -718 805 0
-717 -718 -805 0
719 720 -806 0
-719 720 806 0
719 -720 806 0
-719 -720 -806 0
721 722 -807 0
-721 722 807 0
721 -722 807 0
-721 -722 -807 0
723 724 -808 0
-723 724 808 0
723 -724 808 0
-723 -724 -808 0
725 726 -809 0
-725 726 809 0
725 -726 809 0
-725 -726 -809 0
727 728 -810 0
-727 728 810 0
727 -728 810 0
-727 -728 -810 0
729 730 -811 0
-729 730 811 0
729 -730 811 0
-729 -730 -811 0
731 732 -812 0
-731 732 812 0
731 -732 812 0
-731 -732 -812 0
733 734 -813 0
-733 734 813 0
733 -734 813 0
-733 -734 -813 0
735 736 -814 0
-735 736 814 0
735 -736 814 0
-735 -736 -814 0
737 738 -815 0
-737 738 815 0
737 -738 815 0
-737 -738 -815 0
739 740 -816 0
-739 740 816 0
739 -740 816 0
-739 -740 -816 0
741 742 -817 0
-741 742 817 0
741 -742 817 0
-741 -742 -817 0
743 744 -818 0
-743 744 818 0
743 -744 818 0
-743 -744 -818 0
745 746 -819 0
-745 746 819 0
745 -746 819 0
-745 -746 -819 0
747 748 -820 0
-747 748 820 0
747 -748 820 0
-747 -748 -820 0
749 750 -821 0
-749 750 821 0
749 -750 821 0
-749 -750 -821 0
751 752 -822 0
-751 752 822 0
751 -752 822 0
-751 -752 -822 0
753 754 -823 0
-753 754 823 0
753 -754 823 0
-753 -754 -823 0
755 756 -824 0
-755 756 824 0
755 -756 824 0
-755 -756 -824 0
757 758 -825 0
-757 758 825 0
757 -758 825 0
-757 -758 -825 0
759 760 -826 0
-759 760 826 0
759 -760 826 0
-759 -760 -826 0
761 762 -827 0
-761 762 827 0
761 -762 827 0
-761 -762 -827 0
763 764 -828 0
-763 764 828 0
763 -764 828 0
-763 -764 -828 0
765 766 -829 0
-765 766 829 0
765 -766 829 0
-765 -766 -829 0
767 768 -830 0
-767 768 830 0
767 -768 830 0
-767 -768 -830 0
769 770 -831 0
-769 770 831 0
769 -770 831 0
-769 -770 -831 0
771 772 -832 0
-771 772 832 0
771 -772 832 0
-771 -772 -832 0
773 774 -833 0
-773 774 833 0
773 -774 833 0
-773 -774 -833 0
775 776 -834 0
-775 776 834 0
775 -776 834 0
-775 -776 -834 0
777 778 -835 0
-777 778 835 0
777 -778 835 0
-777 -778 -835 0
779 780 -836 0
-779 780 836 0
779 -780 836 0
-779 -780 -836 0
781 445 -837 0
-781 445 837 0
781 -445 837 0
-781 -445 -837 0
782 783 -838 0
-782 783 838 0
782 -783 838 0
-782 -783 -838 0
784 785 -839 0
-784 785 839 0
784 -785 839 0
-784 -785 -839 0
786 787 -840 0
-786 787 840 0
786 -787 840 0
-786 -787 -840 0
788 789 -841 0
-788 789 841 0
788 -789 841 0
-788 -789 -841 0
790 791 -842 0
-790 791 842 0
790 -791 842 0
-790 -791 -842 0
792 793 -843 0
-792 793 843 0
792 -793 843 0
-792 -793 -843 0
794 795 -844 0
-794 795 844 0
794 -795 844 0
-794 -795 -844 0
796 797 -845 0
-796 797 845 0
796 -797 845 0
-796 -797 -845 0
798 799 -846 0
-798 799 846 0
798 -799 846 0
-798 -799 -846 0
800 801 -847 0
-800 801 847 0
800 -801 847 0
-800 -801 -847 0
802 803 -848 0
-802 803 848 0
802 -803 848 0
-802 -803 -848 0
804 805 -849 0
-804 805 849 0
804 -805 849 0
-804 -805 -849 0
806 807 -850 0
-806 807 850 0
806 -807 850 0
-806 -807 -850 0
808 809 -851 0
-808 809 851 0
808 -809 851 0
-808 -809 -851 0
810 811 -852 0
-810 811 852 0
810 -811 852 0
-810 -811 -852 0
812 813 -853 0
-812 813 853 0
812 -813 853 0
-812 -813 -853 0
814 815 -854 0
-814 815 854 0
814 -815 854 0
-814 -815 -854 0
816 817 -855 0
-816 817 855 0
816 -817 855 0
-816 -817 -855 0
818 819 -856 0
-818 819 856 0
818 -819 856 0
-818 -819 -856 0
820 821 -857 0
-820 821 857 0
820 -821 857 0
-820 -821 -857 0
822 823 -858 0
-822 823 858 0
822 -823 858 0
-822 -823 -858 0
824 825 -859 0
-824 825 859 0
824 -825 859 0
-824 -825 -859 0
826 827 -860 0
-826 827 860 0
826 -827 860 0
-826 -827 -860 0
828 829 -861 0
-828 829 861 0
828 -829 861 0
-828 -829 -861 0
830 831 -862 0
-830 831 862 0
830 -831 862 0
-830 -831 -862 0
832 833 -863 0
-832 833 863 0
832 -833 863 0
-832 -833 -863 0
834 835 -864 0
-834 835 864 0
834 -835 864 0
-834 -835 -864 0
836 837 -865 0
-836 837 865 0
836 -837 865 0
-836 -837 -865 0
838 839 -866 0
-838 839 866 0
838 -839 866 0
-838 -839 -866 0
840 841 -867 0
-840 841 867 0
840 -841 867 0
-840 -841 -867 0
842 843 -868 0
-842 843 868 0
842 -843 868 0
-842 -843 -868 0
844 845 -869 0
-844 845 869 0
844 -845 869 0
-844 -845 -869 0
846 847 -870 0
-846 847 870 0
846 -847 870 0
-846 -847 -870 0
848 849 -871 0
-848 849 871 0
848 -849 871 0
-848 -849 -871 0
850 851 -872 0
-850 851 872 0
850 -851 872 0
-850 -851 -872 0
852 853 -873 0
-852 853 873 0
852 -853 873 0
-852 -853 -873 0
854 855 -874 0
-854 855 874 0
854 -855 874 0
-854 -855 -874 0
856 857 -875 0
-856 857 875 0
856 -857 875 0
-856 -857 -875 0
858 859 -876 0
-858 859 876 0
858 -859 876 0
-858 -859 -876 0
860 861 -877 0
-860 861 877 0
860 -861 877 0
-860 -861 -877 0
862 863 -878 0
-862 863 878 0
862 -863 878 0
-862 -863 -878 0
864 865 -879 0
-864 865 879 0
864 -865 879 0
-864 -865 -879 0
866 867 -880 0
-866 867 880 0
866 -867 880 0
-866 -867 -880 0
868 869 -881 0
-868 869 881 0
868 -869 881 0
-868 -869 -881 0
870 871 -882 0
-870 871 882 0
870 -871 882 0
-870 -871 -882 0
872 873 -883 0
-872 873 883 0
872 -873 883 0
-872 -873 -883 0
874 875 -884 0
-874 875 884 0
874 -875 884 0
-874 -875 -884 0
876 877 -885 0
-876 877 885 0
876 -877 885 0
-876 -877 -885 0
878 879 -886 0
-878 879 886 0
878 -879 886 0
-878 -879 -886 0
880 881 -887 0
-880 881 887 0
880 -881 887 0
-880 -881 -887 0
882 883 -888 0
-882 883 888 0
882 -883 888 0
-882 -883 -888 0
884 885 -889 0
-884 885 889 0
884 -885 889 0
-884 -885 -889 0
887 888 -890 0
-887 888 890 0
887 -888 890 0
-887 -888 -890 0
889 886 -891 0
-889 886 891 0
889 -886 891 0
-889 -886 -891 0
890 891 -446 0
-890 891 446 0
890 -891 446 0
-890 -891 -446 0
